!----------------------------------------------------------------------
! Basis set:      aug-cc-pVD+dZ
! Source:         ccRepo, https://grant-hill.group.shef.ac.uk/ccrepo
! Catalogue:      https://raw.githubusercontent.com/Sheffield-Theoretical-Chemistry/ccrepo-raw/main/cc-basis-catalogue.txt
! Downloaded:     2026-10-06 14:32:00 UTC
! Software:       ccrepo 1.0.4, basis_set_exchange 0.12
! Elements (8):   Na Mg Al Si P S Cl Ar
! Format:         GAMESS-US, written by basis_set_exchange
! Element names:  ALUMINIUM -> ALUMINUM, CAESIUM -> CESIUM
! Contractions (basis_set_exchange download options):
!   optimize general contractions   on
!   uncontract general              off
!   uncontract segmented            off
!   uncontract SPDF                 off
!   make general                    off
! Command:        scripts/fetch_basis_to_library.py cc-repo aug-cc-pVD+dZ
!----------------------------------------------------------------------

$DATA

SODIUM
S   11
1     31700.0                    0.000458878
2      4755.0                    0.0035507
3      1082.0                    0.0182618
4       306.4                    0.071665
5        99.53                   0.212346
6        35.42                   0.416203
7        13.3                    0.37302
8         4.392                  0.0625054
9         1.676                 -0.00624532
10        0.5889                 0.00243374
11        0.0564                -0.000442381
S   11
1     31700.0                   -0.000112162
2      4755.0                   -0.000868512
3      1082.0                   -0.0045133
4       306.4                   -0.0181436
5        99.53                  -0.0580799
6        35.42                  -0.137653
7        13.3                   -0.193908
8         4.392                  0.0858009
9         1.676                  0.604419
10        0.5889                 0.441719
11        0.0564                 0.0130547
S   11
1     31700.0                    1.7016e-05
2      4755.0                    0.000130693
3      1082.0                    0.000687784
4       306.4                    0.00272359
5        99.53                   0.00895529
6        35.42                   0.0207832
7        13.3                    0.031938
8         4.392                 -0.0191368
9         1.676                 -0.102595
10        0.5889                -0.198945
11        0.0564                 0.655952
S   1
1         0.02307                1.0
S   1
1         0.0072                 1.0
P   7
1       138.1                    0.00579641
2        32.24                   0.0415756
3         9.985                  0.162873
4         3.484                  0.359401
5         1.231                  0.449988
6         0.4177                 0.227507
7         0.06513                0.00808247
P   7
1       138.1                   -0.000581531
2        32.24                  -0.00407306
3         9.985                 -0.0167937
4         3.484                 -0.0353268
5         1.231                 -0.0521971
6         0.4177                -0.0168359
7         0.06513                0.434613
P   1
1         0.02053                1.0
P   1
1         0.0057                 1.0
D   1
1         0.3887                 1.0
D   1
1         0.0928                 1.0
D   1
1         0.0446                 1.0

MAGNESIUM
S   11
1     47390.0                    0.000346023
2      7108.0                    0.00268077
3      1618.0                    0.0138367
4       458.4                    0.0551767
5       149.3                    0.16966
6        53.59                   0.364703
7        20.7                    0.406856
8         8.384                  0.135089
9         2.542                  0.00490884
10        0.8787                 0.00028646
11        0.1077                 2.6459e-05
S   11
1     47390.0                   -8.77839e-05
2      7108.0                   -0.000674725
3      1618.0                   -0.00355603
4       458.4                   -0.0142154
5       149.3                   -0.0476748
6        53.59                  -0.114892
7        20.7                   -0.200676
8         8.384                 -0.0341224
9         2.542                  0.570454
10        0.8787                 0.542309
11        0.1077                 0.0218128
S   11
1     47390.0                    1.69628e-05
2      7108.0                    0.000129865
3      1618.0                    0.000688831
4       458.4                    0.00273533
5       149.3                    0.00931224
6        53.59                   0.0223265
7        20.7                    0.0411195
8         8.384                  0.00545642
9         2.542                 -0.134012
10        0.8787                -0.256176
11        0.1077                 0.605856
S   1
1         0.03999                1.0
S   1
1         0.0142                 1.0
P   7
1       179.9                    0.00538161
2        42.14                   0.0392418
3        13.13                   0.157445
4         4.628                  0.358535
5         1.67                   0.457226
6         0.5857                 0.215918
7         0.1311                 0.00664948
P   7
1       179.9                   -0.000865948
2        42.14                  -0.00615978
3        13.13                  -0.0261519
4         4.628                 -0.0570647
5         1.67                  -0.0873906
6         0.5857                -0.012299
7         0.1311                 0.502085
P   1
1         0.04112                1.0
P   1
1         0.0105                 1.0
D   1
1         0.7336                 1.0
D   1
1         0.1932                 1.0
D   1
1         0.0617                 1.0

ALUMINUM
S   11
1     64150.0                    0.00029025
2      9617.0                    0.00225064
3      2189.0                    0.0116459
4       620.5                    0.0467377
5       202.7                    0.146299
6        73.15                   0.330283
7        28.55                   0.415861
8        11.77                   0.189253
9         3.3                    0.0115889
10        1.173                 -0.00128385
11        0.1752                 0.000425883
S   11
1     64150.0                   -7.58048e-05
2      9617.0                   -0.000581791
3      2189.0                   -0.00308113
4       620.5                   -0.0123112
5       202.7                   -0.0419781
6        73.15                  -0.103371
7        28.55                  -0.196308
8        11.77                  -0.0830002
9         3.3                    0.54104
10        1.173                  0.578796
11        0.1752                 0.0288147
S   11
1     64150.0                    1.75078e-05
2      9617.0                    0.000134208
3      2189.0                    0.000712442
4       620.5                    0.0028433
5       202.7                    0.00976842
6        73.15                   0.024185
7        28.55                   0.0474993
8        11.77                   0.0203621
9         3.3                   -0.158788
10        1.173                 -0.311694
11        0.1752                 0.620147
S   1
1         0.06473                1.0
S   1
1         0.0231                 1.0
P   7
1       258.8                    0.00406847
2        60.89                   0.0306815
3        19.14                   0.129149
4         6.881                  0.320831
5         2.574                  0.453815
6         0.9572                 0.275066
7         0.2099                 0.0190807
P   7
1       258.8                   -0.000748053
2        60.89                  -0.00545796
3        19.14                  -0.0245371
4         6.881                 -0.0582138
5         2.574                 -0.0983756
6         0.9572                -0.0260064
7         0.2099                 0.46402
P   1
1         0.05986                1.0
P   1
1         0.0153                 1.0
D   1
1         1.195                  1.0
D   1
1         0.19                   1.0
D   1
1         0.0552                 1.0

SILICON
S   11
1     78860.0                    0.000270443
2     11820.0                    0.00209717
3      2692.0                    0.0108506
4       763.4                    0.0436754
5       249.6                    0.137653
6        90.28                   0.316644
7        35.29                   0.418581
8        14.51                   0.210212
9         4.053                  0.0144952
10        1.482                 -0.0020359
11        0.2517                 0.000624186
S   11
1     78860.0                   -7.23177e-05
2     11820.0                   -0.000555116
3      2692.0                   -0.00293805
4       763.4                   -0.0117687
5       249.6                   -0.0402907
6        90.28                  -0.100609
7        35.29                  -0.196528
8        14.51                  -0.102382
9         4.053                  0.52719
10        1.482                  0.593251
11        0.2517                 0.0332652
S   11
1     78860.0                    1.85113e-05
2     11820.0                    0.000142236
3      2692.0                    0.000752185
4       763.4                    0.00302279
5       249.6                    0.0103677
6        90.28                   0.0262563
7        35.29                   0.0523989
8        14.51                   0.0290959
9         4.053                 -0.178003
10        1.482                 -0.346874
11        0.2517                 0.62302
S   1
1         0.09243                1.0
S   1
1         0.0332                 1.0
P   7
1       315.9                    0.00392656
2        74.42                   0.0298811
3        23.48                   0.127212
4         8.488                  0.320943
5         3.217                  0.455429
6         1.229                  0.268563
7         0.2964                 0.0188336
P   7
1       315.9                   -0.000858302
2        74.42                  -0.00630328
3        23.48                  -0.0288255
4         8.488                 -0.069456
5         3.217                 -0.119493
6         1.229                 -0.0199581
7         0.2964                 0.510268
P   1
1         0.08768                1.0
P   1
1         0.025                  1.0
D   1
1         1.803                  1.0
D   1
1         0.275                  1.0
D   1
1         0.084                  1.0

PHOSPHORUS
S   11
1     94840.0                    0.000255509
2     14220.0                    0.00198193
3      3236.0                    0.010276
4       917.1                    0.0414823
5       299.5                    0.131984
6       108.1                    0.308662
7        42.18                   0.420647
8        17.28                   0.222878
9         4.858                  0.0164035
10        1.818                 -0.00254255
11        0.3372                 0.00074805
S   11
1     94840.0                   -6.96939e-05
2     14220.0                   -0.000535266
3      3236.0                   -0.00283709
4       917.1                   -0.0113983
5       299.5                   -0.0392929
6       108.1                   -0.0996364
7        42.18                  -0.197983
8        17.28                  -0.11486
9         4.858                  0.518595
10        1.818                  0.601847
11        0.3372                 0.0368612
S   11
1     94840.0                    1.91199e-05
2     14220.0                    0.000147223
3      3236.0                    0.000777912
4       917.1                    0.00314546
5       299.5                    0.01082
6       108.1                    0.0279957
7        42.18                   0.0563978
8        17.28                   0.035819
9         4.858                 -0.193387
10        1.818                 -0.372097
11        0.3372                 0.624246
S   1
1         0.1232                 1.0
S   1
1         0.0417                 1.0
P   7
1       370.5                    0.00395005
2        87.33                   0.0302492
3        27.59                   0.129554
4        10.0                    0.327594
5         3.825                  0.456992
6         1.494                  0.253086
7         0.3921                 0.0168798
P   7
1       370.5                   -0.000959832
2        87.33                  -0.00711177
3        27.59                  -0.0327122
4        10.0                   -0.0795784
5         3.825                 -0.135016
6         1.494                 -0.00910585
7         0.3921                 0.537802
P   1
1         0.1186                 1.0
P   1
1         0.0343                 1.0
D   1
1         2.506                  1.0
D   1
1         0.374                  1.0
D   1
1         0.116                  1.0

SULFUR
S   11
1    110800.0                    0.000247635
2     16610.0                    0.00192026
3      3781.0                    0.00996192
4      1071.0                    0.0402975
5       349.8                    0.128604
6       126.3                    0.30348
7        49.26                   0.421432
8        20.16                   0.230781
9         5.72                   0.0178971
10        2.182                 -0.00297516
11        0.4327                 0.000849522
S   11
1    110800.0                   -6.87039e-05
2     16610.0                   -0.000527681
3      3781.0                   -0.00279671
4      1071.0                   -0.0112651
5       349.8                   -0.0388834
6       126.3                   -0.0995025
7        49.26                  -0.19974
8        20.16                  -0.12336
9         5.72                   0.513194
10        2.182                  0.60712
11        0.4327                 0.0396753
S   11
1    110800.0                    1.99077e-05
2     16610.0                    0.000153483
3      3781.0                    0.000809503
4      1071.0                    0.00328974
5       349.8                    0.0112967
6       126.3                    0.0296385
7        49.26                   0.0599851
8        20.16                   0.0413248
9         5.72                  -0.207474
10        2.182                 -0.392889
11        0.4327                 0.63284
S   1
1         0.157                  1.0
S   1
1         0.0507                 1.0
P   7
1       399.7                    0.00447541
2        94.19                   0.0341708
3        29.75                   0.14425
4        10.77                   0.353928
5         4.119                  0.459085
6         1.625                  0.206383
7         0.4726                 0.0102141
P   7
1       399.7                   -0.00116251
2        94.19                  -0.00865664
3        29.75                  -0.0390886
4        10.77                  -0.0934625
5         4.119                 -0.147994
6         1.625                  0.0301904
7         0.4726                 0.561573
P   1
1         0.1407                 1.0
P   1
1         0.0399                 1.0
D   1
1         2.994                  1.0
D   1
1         0.481                  1.0
D   1
1         0.155                  1.0

CHLORINE
S   11
1    127900.0                    0.000241153
2     19170.0                    0.00187095
3      4363.0                    0.00970827
4      1236.0                    0.0393153
5       403.6                    0.125932
6       145.7                    0.299341
7        56.81                   0.421886
8        23.23                   0.237201
9         6.644                  0.0191531
10        2.575                 -0.00334792
11        0.5371                 0.000929883
S   11
1    127900.0                   -6.78922e-05
2     19170.0                   -0.000521836
3      4363.0                   -0.00276513
4      1236.0                   -0.0111537
5       403.6                   -0.0385919
6       145.7                   -0.0994848
7        56.81                  -0.201392
8        23.23                  -0.130313
9         6.644                  0.509443
10        2.575                  0.610725
11        0.5371                 0.0421549
S   11
1    127900.0                    2.04986e-05
2     19170.0                    0.000158298
3      4363.0                    0.000833639
4      1236.0                    0.0033988
5       403.6                    0.0116738
6       145.7                    0.0309622
7        56.81                   0.0629533
8        23.23                   0.0460257
9         6.644                 -0.219312
10        2.575                 -0.408773
11        0.5371                 0.638465
S   1
1         0.1938                 1.0
S   1
1         0.0608                 1.0
P   7
1       417.6                    0.00525982
2        98.33                   0.0398332
3        31.04                   0.164655
4        11.19                   0.387322
5         4.249                  0.457072
6         1.624                  0.151636
7         0.5322                 0.00181615
P   7
1       417.6                   -0.0014357
2        98.33                  -0.0107796
3        31.04                  -0.0470075
4        11.19                  -0.11103
5         4.249                 -0.153275
6         1.624                  0.0894609
7         0.5322                 0.579444
P   1
1         0.162                  1.0
P   1
1         0.0466                 1.0
D   1
1         3.652                  1.0
D   1
1         0.603                  1.0
D   1
1         0.198                  1.0

ARGON
S   11
1    145700.0                    0.0002367
2     21840.0                    0.00183523
3      4972.0                    0.0095286
4      1408.0                    0.0386283
5       459.7                    0.124081
6       165.9                    0.296471
7        64.69                   0.422068
8        26.44                   0.241711
9         7.628                  0.0200509
10        2.996                 -0.00361
11        0.6504                 0.000975607
S   11
1    145700.0                   -6.7491e-05
2     21840.0                   -0.000518522
3      4972.0                   -0.00274825
4      1408.0                   -0.0111007
5       459.7                   -0.038482
6       165.9                   -0.0997599
7        64.69                  -0.203088
8        26.44                  -0.135608
9         7.628                  0.507195
10        2.996                  0.612898
11        0.6504                 0.0442968
S   11
1    145700.0                    2.10457e-05
2     21840.0                    0.000162565
3      4972.0                    0.000855463
4      1408.0                    0.00349745
5       459.7                    0.0120156
6       165.9                    0.0321368
7        64.69                   0.0655279
8        26.44                   0.049937
9         7.628                 -0.229769
10        2.996                 -0.421006
11        0.6504                 0.642331
S   1
1         0.2337                 1.0
S   1
1         0.0709                 1.0
P   7
1       453.7                    0.00570555
2       106.8                    0.043046
3        33.73                   0.176591
4        12.13                   0.406863
5         4.594                  0.452549
6         1.678                  0.122801
7         0.5909                -0.00445996
P   7
1       453.7                   -0.00160655
2       106.8                   -0.0121714
3        33.73                  -0.0520789
4        12.13                  -0.123737
5         4.594                 -0.151619
6         1.678                  0.142425
7         0.5909                 0.584501
P   1
1         0.1852                 1.0
P   1
1         0.0533                 1.0
D   1
1         4.39                   1.0
D   1
1         0.739                  1.0
D   1
1         0.238                  1.0

$END