!----------------------------------------------------------------------
! Basis set:      cc-pwCVDZ
! Source:         ccRepo, https://grant-hill.group.shef.ac.uk/ccrepo
! Catalogue:      https://raw.githubusercontent.com/Sheffield-Theoretical-Chemistry/ccrepo-raw/main/cc-basis-catalogue.txt
! Downloaded:     2026-10-06 12:09:10 UTC
! Software:       ccrepo 1.0.4, basis_set_exchange 0.12
! Elements (24):  Li Be B C N O F Ne Na Mg Al Si P S Cl Ar K Ca Ga Ge As Se Br
!                 Kr
! Format:         GAMESS-US, written by basis_set_exchange
! Element names:  ALUMINIUM -> ALUMINUM, CAESIUM -> CESIUM
! Contractions (basis_set_exchange download options):
!   optimize general contractions   on
!   uncontract general              off
!   uncontract segmented            off
!   uncontract SPDF                 off
!   make general                    off
! Command:        scripts/fetch_basis_to_library.py cc-repo cc-pwCVDZ
!----------------------------------------------------------------------

$DATA

LITHIUM
S   8
1      1469.0                    0.000766
2       220.5                    0.005892
3        50.26                   0.029671
4        14.24                   0.10918
5         4.581                  0.282789
6         1.58                   0.453123
7         0.564                  0.274774
8         0.07345                0.009751
S   1
1         0.8333                 1.0
S   8
1      1469.0                   -0.00012
2       220.5                   -0.000923
3        50.26                  -0.004689
4        14.24                  -0.017682
5         4.581                 -0.048902
6         1.58                  -0.096009
7         0.564                 -0.13638
8         0.07345                0.575102
S   1
1         0.02805                1.0
P   1
1         1.0891                 1.0
P   3
1         1.534                  0.022784
2         0.2749                 0.139107
3         0.07362                0.500375
P   1
1         0.02403                1.0
D   1
1         0.1144                 1.0

BERYLLIUM
S   8
1      2940.0                    0.00068
2       441.2                    0.005236
3       100.5                    0.026606
4        28.43                   0.099993
5         9.169                  0.269702
6         3.196                  0.451469
7         1.159                  0.295074
8         0.1811                 0.012587
S   1
1         1.6446                 1.0
S   8
1      2940.0                   -0.000123
2       441.2                   -0.000966
3       100.5                   -0.004831
4        28.43                  -0.019314
5         9.169                 -0.05328
6         3.196                 -0.120723
7         1.159                 -0.133435
8         0.1811                 0.530767
S   1
1         0.0589                 1.0
P   1
1         2.4428                 1.0
P   3
1         3.619                  0.029111
2         0.711                  0.169365
3         0.1951                 0.513458
P   1
1         0.06018                1.0
D   1
1         0.2354                 1.0

BORON
S   8
1      4570.0                    0.000696
2       685.9                    0.005353
3       156.5                    0.027134
4        44.47                   0.10138
5        14.48                   0.272055
6         5.131                  0.448403
7         1.898                  0.290123
8         0.3329                 0.014322
S   1
1         2.463                  1.0
S   8
1      4570.0                   -0.000139
2       685.9                   -0.001097
3       156.5                   -0.005444
4        44.47                  -0.021916
5        14.48                  -0.059751
6         5.131                 -0.138732
7         1.898                 -0.131482
8         0.3329                 0.539526
S   1
1         0.1043                 1.0
P   1
1         4.566                  1.0
P   3
1         6.001                  0.035481
2         1.241                  0.198072
3         0.3364                 0.50523
P   1
1         0.09538                1.0
D   1
1         0.343                  1.0

CARBON
S   8
1      6665.0                    0.000692
2      1000.0                    0.005329
3       228.0                    0.027077
4        64.71                   0.101718
5        21.06                   0.27474
6         7.495                  0.448564
7         2.797                  0.285074
8         0.5215                 0.015204
S   1
1         3.339                  1.0
S   8
1      6665.0                   -0.000146
2      1000.0                   -0.001154
3       228.0                   -0.005725
4        64.71                  -0.023312
5        21.06                  -0.063955
6         7.495                 -0.149981
7         2.797                 -0.127262
8         0.5215                 0.544529
S   1
1         0.1596                 1.0
P   1
1         7.235                  1.0
P   3
1         9.439                  0.038109
2         2.002                  0.20948
3         0.5456                 0.508557
P   1
1         0.1517                 1.0
D   1
1         0.55                   1.0

NITROGEN
S   8
1      9046.0                    0.0007
2      1357.0                    0.005389
3       309.3                    0.027406
4        87.73                   0.103207
5        28.56                   0.278723
6        10.21                   0.44854
7         3.838                  0.278238
8         0.7466                 0.01544
S   1
1         4.32                   1.0
S   8
1      9046.0                   -0.000153
2      1357.0                   -0.001208
3       309.3                   -0.005992
4        87.73                  -0.024544
5        28.56                  -0.067459
6        10.21                  -0.158078
7         3.838                 -0.121831
8         0.7466                 0.549003
S   1
1         0.2248                 1.0
P   1
1        10.239                  1.0
P   3
1        13.55                   0.039919
2         2.917                  0.217169
3         0.7973                 0.510319
P   1
1         0.2185                 1.0
D   1
1         0.817                  1.0

OXYGEN
S   8
1     11720.0                    0.00071
2      1759.0                    0.00547
3       400.8                    0.027837
4       113.7                    0.1048
5        37.03                   0.283062
6        13.27                   0.448719
7         5.025                  0.270952
8         1.013                  0.015458
S   1
1         5.459                  1.0
S   8
1     11720.0                   -0.00016
2      1759.0                   -0.001263
3       400.8                   -0.006267
4       113.7                   -0.025716
5        37.03                  -0.070924
6        13.27                  -0.165411
7         5.025                 -0.116955
8         1.013                  0.557368
S   1
1         0.3023                 1.0
P   1
1        13.32                   1.0
P   3
1        17.7                    0.043018
2         3.854                  0.228913
3         1.046                  0.508728
P   1
1         0.2753                 1.0
D   1
1         1.185                  1.0

FLUORINE
S   8
1     14710.0                    0.000721
2      2207.0                    0.005553
3       502.8                    0.028267
4       142.6                    0.106444
5        46.47                   0.286814
6        16.7                    0.448641
7         6.356                  0.264761
8         1.316                  0.015333
S   1
1         6.724                  1.0
S   8
1     14710.0                   -0.000165
2      2207.0                   -0.001308
3       502.8                   -0.006495
4       142.6                   -0.026691
5        46.47                  -0.07369
6        16.7                   -0.170776
7         6.356                 -0.112327
8         1.316                  0.562814
S   1
1         0.3897                 1.0
P   1
1        16.803                  1.0
P   3
1        22.67                   0.044878
2         4.977                  0.235718
3         1.347                  0.508521
P   1
1         0.3471                 1.0
D   1
1         1.64                   1.0

NEON
S   8
1     17880.0                    0.000738
2      2683.0                    0.005677
3       611.5                    0.028883
4       173.5                    0.10854
5        56.64                   0.290907
6        20.42                   0.448324
7         7.81                   0.258026
8         1.653                  0.015063
S   1
1         8.116                  1.0
S   8
1     17880.0                   -0.000172
2      2683.0                   -0.001357
3       611.5                   -0.006737
4       173.5                   -0.027663
5        56.64                  -0.076208
6        20.42                  -0.175227
7         7.81                  -0.107038
8         1.653                  0.56705
S   1
1         0.4869                 1.0
P   1
1        20.658                  1.0
P   3
1        28.39                   0.046087
2         6.27                   0.240181
3         1.695                  0.508744
P   1
1         0.4317                 1.0
D   1
1         2.202                  1.0

SODIUM
S   11
1     31700.0                    0.000458878
2      4755.0                    0.0035507
3      1082.0                    0.0182618
4       306.4                    0.071665
5        99.53                   0.212346
6        35.42                   0.416203
7        13.3                    0.37302
8         4.392                  0.0625054
9         1.676                 -0.00624532
10        0.5889                 0.00243374
11        0.0564                -0.000442381
S   11
1     31700.0                   -0.000112162
2      4755.0                   -0.000868512
3      1082.0                   -0.0045133
4       306.4                   -0.0181436
5        99.53                  -0.0580799
6        35.42                  -0.137653
7        13.3                   -0.193908
8         4.392                  0.0858009
9         1.676                  0.604419
10        0.5889                 0.441719
11        0.0564                 0.0130547
S   1
1         0.5132                 1.0
S   11
1     31700.0                    1.7016e-05
2      4755.0                    0.000130693
3      1082.0                    0.000687784
4       306.4                    0.00272359
5        99.53                   0.00895529
6        35.42                   0.0207832
7        13.3                    0.031938
8         4.392                 -0.0191368
9         1.676                 -0.102595
10        0.5889                -0.198945
11        0.0564                 0.655952
S   1
1         0.02307                1.0
P   7
1       138.1                    0.00579641
2        32.24                   0.0415756
3         9.985                  0.162873
4         3.484                  0.359401
5         1.231                  0.449988
6         0.4177                 0.227507
7         0.06513                0.00808247
P   1
1         0.3835                 1.0
P   7
1       138.1                   -0.000581531
2        32.24                  -0.00407306
3         9.985                 -0.0167937
4         3.484                 -0.0353268
5         1.231                 -0.0521971
6         0.4177                -0.0168359
7         0.06513                0.434613
P   1
1         0.02053                1.0
D   1
1         0.9901                 1.0
D   1
1         0.0928                 1.0

MAGNESIUM
S   11
1     47390.0                    0.000346023
2      7108.0                    0.00268077
3      1618.0                    0.0138367
4       458.4                    0.0551767
5       149.3                    0.16966
6        53.59                   0.364703
7        20.7                    0.406856
8         8.384                  0.135089
9         2.542                  0.00490884
10        0.8787                 0.00028646
11        0.1077                 2.6459e-05
S   1
1         2.9116                 1.0
S   11
1     47390.0                   -8.77839e-05
2      7108.0                   -0.000674725
3      1618.0                   -0.00355603
4       458.4                   -0.0142154
5       149.3                   -0.0476748
6        53.59                  -0.114892
7        20.7                   -0.200676
8         8.384                 -0.0341224
9         2.542                  0.570454
10        0.8787                 0.542309
11        0.1077                 0.0218128
S   11
1     47390.0                    1.69628e-05
2      7108.0                    0.000129865
3      1618.0                    0.000688831
4       458.4                    0.00273533
5       149.3                    0.00931224
6        53.59                   0.0223265
7        20.7                    0.0411195
8         8.384                  0.00545642
9         2.542                 -0.134012
10        0.8787                -0.256176
11        0.1077                 0.605856
S   1
1         0.03999                1.0
P   1
1         6.031                  1.0
P   7
1       179.9                    0.00538161
2        42.14                   0.0392418
3        13.13                   0.157445
4         4.628                  0.358535
5         1.67                   0.457226
6         0.5857                 0.215918
7         0.1311                 0.00664948
P   7
1       179.9                   -0.000865948
2        42.14                  -0.00615978
3        13.13                  -0.0261519
4         4.628                 -0.0570647
5         1.67                  -0.0873906
6         0.5857                -0.012299
7         0.1311                 0.502085
P   1
1         0.04112                1.0
D   1
1         1.3702                 1.0
D   1
1         0.1932                 1.0

ALUMINUM
S   11
1     64150.0                    0.00029025
2      9617.0                    0.00225064
3      2189.0                    0.0116459
4       620.5                    0.0467377
5       202.7                    0.146299
6        73.15                   0.330283
7        28.55                   0.415861
8        11.77                   0.189253
9         3.3                    0.0115889
10        1.173                 -0.00128385
11        0.1752                 0.000425883
S   1
1         3.599                  1.0
S   11
1     64150.0                   -7.58048e-05
2      9617.0                   -0.000581791
3      2189.0                   -0.00308113
4       620.5                   -0.0123112
5       202.7                   -0.0419781
6        73.15                  -0.103371
7        28.55                  -0.196308
8        11.77                  -0.0830002
9         3.3                    0.54104
10        1.173                  0.578796
11        0.1752                 0.0288147
S   11
1     64150.0                    1.75078e-05
2      9617.0                    0.000134208
3      2189.0                    0.000712442
4       620.5                    0.0028433
5       202.7                    0.00976842
6        73.15                   0.024185
7        28.55                   0.0474993
8        11.77                   0.0203621
9         3.3                   -0.158788
10        1.173                 -0.311694
11        0.1752                 0.620147
S   1
1         0.06473                1.0
P   7
1       258.8                    0.00406847
2        60.89                   0.0306815
3        19.14                   0.129149
4         6.881                  0.320831
5         2.574                  0.453815
6         0.9572                 0.275066
7         0.2099                 0.0190807
P   1
1         0.928                  1.0
P   7
1       258.8                   -0.000748053
2        60.89                  -0.00545796
3        19.14                  -0.0245371
4         6.881                 -0.0582138
5         2.574                 -0.0983756
6         0.9572                -0.0260064
7         0.2099                 0.46402
P   1
1         0.05986                1.0
D   1
1         1.792                  1.0
D   1
1         0.189                  1.0

SILICON
S   11
1     78860.0                    0.000270443
2     11820.0                    0.00209717
3      2692.0                    0.0108506
4       763.4                    0.0436754
5       249.6                    0.137653
6        90.28                   0.316644
7        35.29                   0.418581
8        14.51                   0.210212
9         4.053                  0.0144952
10        1.482                 -0.0020359
11        0.2517                 0.000624186
S   1
1         4.499                  1.0
S   11
1     78860.0                   -7.23177e-05
2     11820.0                   -0.000555116
3      2692.0                   -0.00293805
4       763.4                   -0.0117687
5       249.6                   -0.0402907
6        90.28                  -0.100609
7        35.29                  -0.196528
8        14.51                  -0.102382
9         4.053                  0.52719
10        1.482                  0.593251
11        0.2517                 0.0332652
S   11
1     78860.0                    1.85113e-05
2     11820.0                    0.000142236
3      2692.0                    0.000752185
4       763.4                    0.00302279
5       249.6                    0.0103677
6        90.28                   0.0262563
7        35.29                   0.0523989
8        14.51                   0.0290959
9         4.053                 -0.178003
10        1.482                 -0.346874
11        0.2517                 0.62302
S   1
1         0.09243                1.0
P   7
1       315.9                    0.00392656
2        74.42                   0.0298811
3        23.48                   0.127212
4         8.488                  0.320943
5         3.217                  0.455429
6         1.229                  0.268563
7         0.2964                 0.0188336
P   1
1         1.388                  1.0
P   7
1       315.9                   -0.000858302
2        74.42                  -0.00630328
3        23.48                  -0.0288255
4         8.488                 -0.069456
5         3.217                 -0.119493
6         1.229                 -0.0199581
7         0.2964                 0.510268
P   1
1         0.08768                1.0
D   1
1         2.277                  1.0
D   1
1         0.275                  1.0

PHOSPHORUS
S   11
1     94840.0                    0.000255509
2     14220.0                    0.00198193
3      3236.0                    0.010276
4       917.1                    0.0414823
5       299.5                    0.131984
6       108.1                    0.308662
7        42.18                   0.420647
8        17.28                   0.222878
9         4.858                  0.0164035
10        1.818                 -0.00254255
11        0.3372                 0.00074805
S   1
1         5.474                  1.0
S   11
1     94840.0                   -6.96939e-05
2     14220.0                   -0.000535266
3      3236.0                   -0.00283709
4       917.1                   -0.0113983
5       299.5                   -0.0392929
6       108.1                   -0.0996364
7        42.18                  -0.197983
8        17.28                  -0.11486
9         4.858                  0.518595
10        1.818                  0.601847
11        0.3372                 0.0368612
S   11
1     94840.0                    1.91199e-05
2     14220.0                    0.000147223
3      3236.0                    0.000777912
4       917.1                    0.00314546
5       299.5                    0.01082
6       108.1                    0.0279957
7        42.18                   0.0563978
8        17.28                   0.035819
9         4.858                 -0.193387
10        1.818                 -0.372097
11        0.3372                 0.624246
S   1
1         0.1232                 1.0
P   7
1       370.5                    0.00395005
2        87.33                   0.0302492
3        27.59                   0.129554
4        10.0                    0.327594
5         3.825                  0.456992
6         1.494                  0.253086
7         0.3921                 0.0168798
P   1
1         1.939                  1.0
P   7
1       370.5                   -0.000959832
2        87.33                  -0.00711177
3        27.59                  -0.0327122
4        10.0                   -0.0795784
5         3.825                 -0.135016
6         1.494                 -0.00910585
7         0.3921                 0.537802
P   1
1         0.1186                 1.0
D   1
1         2.76                   1.0
D   1
1         0.373                  1.0

SULFUR
S   11
1    110800.0                    0.000247635
2     16610.0                    0.00192026
3      3781.0                    0.00996192
4      1071.0                    0.0402975
5       349.8                    0.128604
6       126.3                    0.30348
7        49.26                   0.421432
8        20.16                   0.230781
9         5.72                   0.0178971
10        2.182                 -0.00297516
11        0.4327                 0.000849522
S   1
1         6.501                  1.0
S   11
1    110800.0                   -6.87039e-05
2     16610.0                   -0.000527681
3      3781.0                   -0.00279671
4      1071.0                   -0.0112651
5       349.8                   -0.0388834
6       126.3                   -0.0995025
7        49.26                  -0.19974
8        20.16                  -0.12336
9         5.72                   0.513194
10        2.182                  0.60712
11        0.4327                 0.0396753
S   11
1    110800.0                    1.99077e-05
2     16610.0                    0.000153483
3      3781.0                    0.000809503
4      1071.0                    0.00328974
5       349.8                    0.0112967
6       126.3                    0.0296385
7        49.26                   0.0599851
8        20.16                   0.0413248
9         5.72                  -0.207474
10        2.182                 -0.392889
11        0.4327                 0.63284
S   1
1         0.157                  1.0
P   7
1       399.7                    0.00447541
2        94.19                   0.0341708
3        29.75                   0.14425
4        10.77                   0.353928
5         4.119                  0.459085
6         1.625                  0.206383
7         0.4726                 0.0102141
P   1
1         2.503                  1.0
P   7
1       399.7                   -0.00116251
2        94.19                  -0.00865664
3        29.75                  -0.0390886
4        10.77                  -0.0934625
5         4.119                 -0.147994
6         1.625                  0.0301904
7         0.4726                 0.561573
P   1
1         0.1407                 1.0
D   1
1         3.211                  1.0
D   1
1         0.479                  1.0

CHLORINE
S   11
1    127900.0                    0.000241153
2     19170.0                    0.00187095
3      4363.0                    0.00970827
4      1236.0                    0.0393153
5       403.6                    0.125932
6       145.7                    0.299341
7        56.81                   0.421886
8        23.23                   0.237201
9         6.644                  0.0191531
10        2.575                 -0.00334792
11        0.5371                 0.000929883
S   1
1         7.591                  1.0
S   11
1    127900.0                   -6.78922e-05
2     19170.0                   -0.000521836
3      4363.0                   -0.00276513
4      1236.0                   -0.0111537
5       403.6                   -0.0385919
6       145.7                   -0.0994848
7        56.81                  -0.201392
8        23.23                  -0.130313
9         6.644                  0.509443
10        2.575                  0.610725
11        0.5371                 0.0421549
S   11
1    127900.0                    2.04986e-05
2     19170.0                    0.000158298
3      4363.0                    0.000833639
4      1236.0                    0.0033988
5       403.6                    0.0116738
6       145.7                    0.0309622
7        56.81                   0.0629533
8        23.23                   0.0460257
9         6.644                 -0.219312
10        2.575                 -0.408773
11        0.5371                 0.638465
S   1
1         0.1938                 1.0
P   7
1       417.6                    0.00525982
2        98.33                   0.0398332
3        31.04                   0.164655
4        11.19                   0.387322
5         4.249                  0.457072
6         1.624                  0.151636
7         0.5322                 0.00181615
P   1
1         3.092                  1.0
P   7
1       417.6                   -0.0014357
2        98.33                  -0.0107796
3        31.04                  -0.0470075
4        11.19                  -0.11103
5         4.249                 -0.153275
6         1.624                  0.0894609
7         0.5322                 0.579444
P   1
1         0.162                  1.0
D   1
1         3.701                  1.0
D   1
1         0.6                    1.0

ARGON
S   11
1    145700.0                    0.0002367
2     21840.0                    0.00183523
3      4972.0                    0.0095286
4      1408.0                    0.0386283
5       459.7                    0.124081
6       165.9                    0.296471
7        64.69                   0.422068
8        26.44                   0.241711
9         7.628                  0.0200509
10        2.996                 -0.00361
11        0.6504                 0.000975607
S   1
1         8.742                  1.0
S   11
1    145700.0                   -6.7491e-05
2     21840.0                   -0.000518522
3      4972.0                   -0.00274825
4      1408.0                   -0.0111007
5       459.7                   -0.038482
6       165.9                   -0.0997599
7        64.69                  -0.203088
8        26.44                  -0.135608
9         7.628                  0.507195
10        2.996                  0.612898
11        0.6504                 0.0442968
S   11
1    145700.0                    2.10457e-05
2     21840.0                    0.000162565
3      4972.0                    0.000855463
4      1408.0                    0.00349745
5       459.7                    0.0120156
6       165.9                    0.0321368
7        64.69                   0.0655279
8        26.44                   0.049937
9         7.628                 -0.229769
10        2.996                 -0.421006
11        0.6504                 0.642331
S   1
1         0.2337                 1.0
P   7
1       453.7                    0.00570555
2       106.8                    0.043046
3        33.73                   0.176591
4        12.13                   0.406863
5         4.594                  0.452549
6         1.678                  0.122801
7         0.5909                -0.00445996
P   1
1         3.711                  1.0
P   7
1       453.7                   -0.00160655
2       106.8                   -0.0121714
3        33.73                  -0.0520789
4        12.13                  -0.123737
5         4.594                 -0.151619
6         1.678                  0.142425
7         0.5909                 0.584501
P   1
1         0.1852                 1.0
D   1
1         4.251                  1.0
D   1
1         0.738                  1.0

POTASSIUM
S   14
1    523346.8                    5.84621e-05
2     67847.69                   0.000545943
3     14100.76                   0.00316476
4      3747.88                   0.0140913
5      1165.997                  0.0513772
6       405.465                  0.150612
7       153.2749                 0.32534
8        62.0131                 0.403563
9        26.34656                0.190334
10        8.550189               0.0137592
11        3.44032               -0.00177269
12        0.8312492              0.000520994
13        0.3257631             -0.000273082
14        0.03636779             7.59453e-05
S   14
1    523346.8                   -1.67508e-05
2     67847.69                  -0.000157541
3     14100.76                  -0.0009065
4      3747.88                  -0.00411873
5      1165.997                 -0.0151032
6       405.465                 -0.0480082
7       153.2749                -0.115938
8        62.0131                -0.210414
9        26.34656               -0.102008
10        8.550189               0.514037
11        3.44032                0.601866
12        0.8312492              0.0507744
13        0.3257631             -0.011313
14        0.03636779             0.00299884
S   1
1         0.79118                1.0
S   14
1    523346.8                    5.5293e-06
2     67847.69                   5.17935e-05
3     14100.76                   0.000299854
4      3747.88                   0.00135274
5      1165.997                  0.00502267
6       405.465                  0.0158508
7       153.2749                 0.0395807
8        62.0131                 0.0722694
9        26.34656                0.0412352
10        8.550189              -0.249251
11        3.44032               -0.44632
12        0.8312492              0.598993
13        0.3257631              0.617408
14        0.03636779             0.0229581
S   14
1    523346.8                   -1.07667e-06
2     67847.69                  -1.00258e-05
3     14100.76                  -5.85433e-05
4      3747.88                  -0.000261132
5      1165.997                 -0.000984202
6       405.465                 -0.0030491
7       153.2749                -0.00782817
8        62.0131                -0.0137713
9        26.34656               -0.00891667
10        8.550189               0.0527643
11        3.44032                0.0895814
12        0.8312492             -0.132829
13        0.3257631             -0.310071
14        0.03636779             0.657679
S   1
1         0.01731738             1.0
P   10
1      1036.177                  0.00178146
2       234.1423                 0.0156119
3        73.17656                0.0764439
4        26.74509                0.23544
5        10.53356                0.430936
6         4.296808               0.37157
7         1.626117               0.0733375
8         0.6527073             -0.00433401
9         0.248393               0.00179458
10        0.04411967            -0.000430508
P   1
1         0.92053                1.0
P   10
1      1036.177                 -0.000545552
2       234.1423                -0.00478036
3        73.17656               -0.0240598
4        26.74509               -0.0761763
5        10.53356               -0.149553
6         4.296808              -0.120086
7         1.626117               0.238175
8         0.6527073              0.555099
9         0.248393               0.356618
10        0.04411967             0.0222806
P   10
1      1036.177                  7.53944e-05
2       234.1423                 0.000658988
3        73.17656                0.00333194
4        26.74509                0.0105326
5        10.53356                0.0208978
6         4.296808               0.0163118
7         1.626117              -0.0368846
8         0.6527073             -0.0883004
9         0.248393              -0.0792322
10        0.04411967             0.419425
P   1
1         0.01585962             1.0
D   1
1         0.55775                1.0
D   4
1         1.799834               0.018829
2         0.6122067              0.0432051
3         0.1366237              0.076501
4         0.05649686             0.213282
D   1
1         0.01585889             1.0

CALCIUM
S   14
1    634294.0                    5.25596e-05
2     81314.34                   0.000498068
3     16764.79                   0.00291602
4      4429.73                   0.0130856
5      1371.988                  0.0481108
6       475.4881                 0.142721
7       179.3076                 0.314824
8        72.40409                0.406967
9        30.65899                0.207434
10        9.836987               0.0166181
11        3.999459              -0.00256523
12        1.02701                0.000839702
13        0.4266546             -0.000447647
14        0.06363365             0.000120064
S   14
1    634294.0                   -1.52182e-05
2     81314.34                  -0.000145233
3     16764.79                  -0.000843929
4      4429.73                  -0.00386276
5      1371.988                 -0.0142692
6       475.4881                -0.0457714
7       179.3076                -0.112259
8        72.40409               -0.209337
9        30.65899               -0.118169
10        9.836987               0.498551
11        3.999459               0.61479
12        1.02701                0.0589238
13        0.4266546             -0.0134539
14        0.06363365             0.00329146
S   1
1         1.00281                1.0
S   14
1    634294.0                    5.25601e-06
2     81314.34                   4.99945e-05
3     16764.79                   0.000291984
4      4429.73                   0.00132884
5      1371.988                  0.00496095
6       475.4881                 0.0158367
7       179.3076                 0.0400138
8        72.40409                0.0755025
9        30.65899                0.0488318
10        9.836987              -0.253013
11        3.999459              -0.480449
12        1.02701                0.565877
13        0.4266546              0.658327
14        0.06363365             0.0259175
S   14
1    634294.0                   -1.25738e-06
2     81314.34                  -1.19254e-05
3     16764.79                  -6.99428e-05
4      4429.73                  -0.000316569
5      1371.988                 -0.00119073
6       475.4881                -0.0037686
7       179.3076                -0.00966122
8        72.40409               -0.0179561
9        30.65899               -0.0123463
10        9.836987               0.0648503
11        3.999459               0.124213
12        1.02701               -0.173178
13        0.4266546             -0.379988
14        0.06363365             0.65757
S   1
1         0.02626317             1.0
P   10
1      1236.528                  0.0016105
2       277.4292                 0.014372
3        86.51347                0.0715876
4        31.62622                0.225429
5        12.50015                0.425126
6         5.134094               0.381133
7         2.008968               0.0827503
8         0.8381539             -0.00363253
9         0.3377041              0.00184741
10        0.08070929            -0.000524557
P   1
1         1.1804                 1.0
P   10
1      1236.528                 -0.000526787
2       277.4292                -0.0047048
3        86.51347               -0.0240594
4        31.62622               -0.0780806
5        12.50015               -0.157752
6         5.134094              -0.134782
7         2.008968               0.224136
8         0.8381539              0.557516
9         0.3377041              0.356789
10        0.08070929             0.0269438
P   10
1      1236.528                  0.00011031
2       277.4292                 0.000978122
3        86.51347                0.00505273
4        31.62622                0.0162816
5        12.50015                0.0336093
6         5.134094               0.0272352
7         2.008968              -0.0525284
8         0.8381539             -0.146018
9         0.3377041             -0.107776
10        0.08070929             0.504039
P   1
1         0.02903334             1.0
D   1
1         1.20559                1.0
D   4
1         9.709279               0.035203
2         2.424846               0.155891
3         0.7018081              0.318767
4         0.1877391              0.462295
D   1
1         0.04818827             1.0

GALLIUM
S   13
1    485130.0                    0.0002068
2     72719.0                    0.0016047
3     16552.0                    0.0083402
4      4687.8                    0.0340248
5      1529.1                    0.1111699
6       551.81                   0.275393
7       215.18                   0.4212628
8        88.174                  0.2738906
9        27.154                  0.028372
10       11.503                 -0.0062931
11        3.3018                 0.0020606
12        1.3314                -0.0009269
13        0.19316                0.0002273
S   13
1    485130.0                   -6.43e-05
2     72719.0                   -0.0004954
3     16552.0                   -0.0026208
4      4687.8                   -0.0106839
5      1529.1                   -0.0374123
6       551.81                  -0.1009636
7       215.18                  -0.2145141
8        88.174                 -0.1752297
9        27.154                  0.4831599
10       11.503                  0.6323677
11        3.3018                 0.0684942
12        1.3314                -0.0118712
13        0.19316                0.0026652
S   13
1    485130.0                    2.45e-05
2     72719.0                    0.0001895
3     16552.0                    0.0009964
4      4687.8                    0.0041082
5      1529.1                    0.0142938
6       551.81                   0.0398034
7       215.18                   0.085594
8        88.174                  0.0796305
9        27.154                 -0.2939107
10       11.503                 -0.5263914
11        3.3018                 0.5864249
12        1.3314                 0.6726347
13        0.19316                0.0276123
S   1
1         0.9524                 1.0
S   13
1    485130.0                   -5.7e-06
2     72719.0                   -4.4e-05
3     16552.0                   -0.0002305
4      4687.8                   -0.0009544
5      1529.1                   -0.0033055
6       551.81                  -0.0092888
7       215.18                  -0.0198644
8        88.174                 -0.0190888
9        27.154                  0.0732356
10       11.503                  0.1341526
11        3.3018                -0.1831929
12        1.3314                -0.3571308
13        0.19316                0.6246013
S   1
1         0.070895               1.0
P   10
1      3248.6                    0.001526
2       769.97                   0.0127486
3       248.2                    0.0633742
4        93.364                  0.2065775
5        38.251                  0.4092963
6        16.422                  0.3919183
7         6.7918                 0.1029441
8         2.8336                -0.0007203
9         1.1062                 0.002095
10        0.2225                -0.000329
P   10
1      3248.6                   -0.0005803
2       769.97                  -0.0048647
3       248.2                   -0.0248394
4        93.364                 -0.0841759
5        38.251                 -0.1800885
6        16.422                 -0.1585555
7         6.7918                 0.2355376
8         2.8336                 0.5820587
9         1.1062                 0.3366619
10        0.2225                 0.0171912
P   1
1         0.6847                 1.0
P   10
1      3248.6                    9.5e-05
2       769.97                   0.0007832
3       248.2                    0.0040855
4        93.364                  0.0135987
5        38.251                  0.0302695
6        16.422                  0.024179
7         6.7918                -0.0423777
8         2.8336                -0.1265661
9         1.1062                -0.0499444
10        0.2225                 0.4494199
P   1
1         0.061772               1.0
D   5
1        65.337                  0.0273825
2        18.497                  0.1510805
3         6.315                  0.3749217
4         2.1635                 0.4750799
5         0.66675                0.298275
D   1
1         0.7173                 1.0
D   1
1         0.1884                 1.0
F   1
1         1.3675                 1.0

GERMANIUM
S   13
1    521800.0                    0.0002045
2     78214.0                    0.0015868
3     17803.0                    0.008248
4      5041.9                    0.0336649
5      1644.5                    0.1101249
6       593.43                   0.2735607
7       231.36                   0.421067
8        94.762                  0.2766791
9        29.274                  0.029218
10       12.45                  -0.0065903
11        3.6463                 0.002243
12        1.5025                -0.0010382
13        0.24503                0.0002695
S   13
1    521800.0                   -6.38e-05
2     78214.0                   -0.0004916
3     17803.0                   -0.0026002
4      5041.9                   -0.010608
5      1644.5                   -0.0371602
6       593.43                  -0.100579
7       231.36                  -0.2143977
8        94.762                 -0.1782617
9        29.274                  0.4777404
10       12.45                   0.6355983
11        3.6463                 0.0722174
12        1.5025                -0.0127265
13        0.24503                0.0029608
S   13
1    521800.0                    2.46e-05
2     78214.0                    0.00019
3     17803.0                    0.0009993
4      5041.9                    0.00412
5      1644.5                    0.0143557
6       593.43                   0.0400375
7       231.36                   0.0865794
8        94.762                  0.0815861
9        29.274                 -0.293477
10       12.45                  -0.5367983
11        3.6463                 0.5637985
12        1.5025                 0.6947182
13        0.24503                0.031573
S   1
1         1.1443                 1.0
S   13
1    521800.0                   -6.3e-06
2     78214.0                   -4.86e-05
3     17803.0                   -0.0002553
4      5041.9                   -0.001056
5      1644.5                   -0.0036674
6       593.43                  -0.0103053
7       231.36                  -0.02222
8        94.762                 -0.0215275
9        29.274                  0.0806752
10       12.45                   0.1524958
11        3.6463                -0.1980528
12        1.5025                -0.4073954
13        0.24503                0.6477288
S   1
1         0.091594               1.0
P   10
1      3568.1                    0.0014591
2       845.72                   0.0122176
3       272.74                   0.061049
4       102.68                   0.2008039
5        42.148                  0.4038942
6        18.149                  0.3970027
7         7.5934                 0.1105481
8         3.1964                 7.68e-05
9         1.2743                 0.0021263
10        0.28258               -0.0003744
P   10
1      3568.1                   -0.000563
2       845.72                  -0.0047354
3       272.74                  -0.0242643
4       102.68                  -0.08309
5        42.148                 -0.1800247
6        18.149                 -0.1663295
7         7.5934                 0.2193717
8         3.1964                 0.5820239
9         1.2743                 0.347772
10        0.28258                0.0192455
P   1
1         0.937                  1.0
P   10
1      3568.1                    0.0001115
2       845.72                   0.0009212
3       272.74                   0.0048273
4       102.68                   0.0162272
5        42.148                  0.0366354
6        18.149                  0.0307867
7         7.5934                -0.0480643
8         3.1964                -0.1559804
9         1.2743                -0.063237
10        0.28258                0.5040819
P   1
1         0.08409                1.0
D   5
1        74.762                  0.0257684
2        21.302                  0.1454421
3         7.3436                 0.3713721
4         2.5651                 0.4800002
5         0.8197                 0.28968
D   1
1         0.8739                 1.0
D   1
1         0.247                  1.0
F   1
1         1.7152                 1.0

ARSENIC
S   13
1    559583.8                    0.0002024
2     83879.33                   0.0015709
3     19092.67                   0.0081662
4      5407.392                  0.0333399
5      1763.756                  0.1091726
6       636.4567                 0.2718853
7       248.0884                 0.4208509
8       101.5785                 0.2792257
9        31.47551                0.0300301
10       13.43728               -0.0068804
11        4.00869                0.002424
12        1.684929              -0.0011491
13        0.300019               0.0003095
S   13
1    559583.8                   -6.34e-05
2     83879.33                  -0.0004883
3     19092.67                  -0.0025821
4      5407.392                 -0.0105402
5      1763.756                 -0.0369325
6       636.4567                -0.1002355
7       248.0884                -0.2142948
8       101.5785                -0.1810526
9        31.47551                0.472541
10       13.43728                0.6386194
11        4.00869                0.0758107
12        1.684929              -0.0135278
13        0.300019               0.003197
S   13
1    559583.8                    2.46e-05
2     83879.33                   0.0001907
3     19092.67                   0.0010031
4      5407.392                  0.0041353
5      1763.756                  0.0144259
6       636.4567                 0.0402962
7       248.0884                 0.087567
8       101.5785                 0.0835178
9        31.47551               -0.2932935
10       13.43728               -0.547052
11        4.00869                0.5438738
12        1.684929               0.7143591
13        0.300019               0.0353443
S   1
1         1.3344                 1.0
S   13
1    559583.8                   -6.8e-06
2     83879.33                  -5.25e-05
3     19092.67                  -0.0002756
4      5407.392                 -0.0011389
5      1763.756                 -0.0039646
6       636.4567                -0.0111423
7       248.0884                -0.0241991
8       101.5785                -0.0236339
9        31.47551                0.0866317
10       13.43728                0.1685839
11        4.00869               -0.2091425
12        1.684929              -0.4500918
13        0.300019               0.6603978
S   1
1         0.113587               1.0
P   10
1      3886.356                  0.0014097
2       921.202                  0.0118277
3       297.1932                 0.059328
4       111.9751                 0.1965115
5        46.03462                0.3997891
6        19.87419                0.4004653
7         8.386088               0.1164196
8         3.558728               0.0006918
9         1.447282               0.0021633
10        0.347779              -0.000415
P   10
1      3886.356                 -0.0005519
2       921.202                 -0.004655
3       297.1932                -0.0239176
4       111.9751                -0.0825627
5        46.03462               -0.1806791
6        19.87419               -0.1724848
7         8.386088               0.20867
8         3.558728               0.5823622
9         1.447282               0.3537465
10        0.347779               0.0206439
P   1
1         1.2227                 1.0
P   10
1      3886.356                  0.0001236
2       921.202                  0.001024
3       297.1932                 0.0053805
4       111.9751                 0.0182443
5        46.03462                0.0415979
6        19.87419                0.0362998
7         8.386088              -0.0523569
8         3.558728              -0.1791667
9         1.447282              -0.0740477
10        0.347779               0.5358094
P   1
1         0.107699               1.0
D   5
1        84.42423                0.0245288
2        24.18159                0.141134
3         8.401777               0.3687579
4         2.980502               0.4840626
5         0.979003               0.2824434
D   1
1         1.0461                 1.0
D   1
1         0.3098                 1.0
F   1
1         2.0701                 1.0

SELENIUM
S   13
1    598990.0                    0.0002004
2     89783.0                    0.0015554
3     20435.0                    0.0080872
4      5786.9                    0.0330344
5      1887.3                    0.1082924
6       680.97                   0.2703361
7       265.39                   0.4206236
8       108.63                   0.2815922
9        33.76                   0.030811
10       14.465                 -0.0071617
11        4.389                  0.0026022
12        1.8783                -0.0012583
13        0.35859                0.0003465
S   13
1    598990.0                   -6.29e-05
2     89783.0                   -0.000485
3     20435.0                   -0.0025644
4      5786.9                   -0.0104761
5      1887.3                   -0.0367223
6       680.97                  -0.0999225
7       265.39                  -0.2141973
8       108.63                  -0.1836593
9        33.76                   0.4675454
10       14.465                  0.641474
11        4.389                  0.0792569
12        1.8783                -0.0142697
13        0.35859                0.0033792
S   13
1    598990.0                    2.47e-05
2     89783.0                    0.0001913
3     20435.0                    0.0010068
4      5786.9                    0.0041514
5      1887.3                    0.0144991
6       680.97                   0.0405658
7       265.39                   0.0885364
8       108.63                   0.0854212
9        33.76                  -0.2932581
10       14.465                 -0.5570727
11        4.389                  0.5261436
12        1.8783                 0.7320371
13        0.35859                0.0388246
S   1
1         1.5189                 1.0
S   13
1    598990.0                   -7.2e-06
2     89783.0                   -5.59e-05
3     20435.0                   -0.0002938
4      5786.9                   -0.0012136
5      1887.3                   -0.004234
6       680.97                  -0.0119035
7       265.39                  -0.0260206
8       108.63                  -0.0256148
9        33.76                   0.0919427
10       14.465                  0.18387
11        4.389                 -0.2188461
12        1.8783                -0.4896524
13        0.35859                0.6775818
S   1
1         0.13649                1.0
P   10
1      4135.6                    0.0014127
2       980.34                   0.0118588
3       316.35                   0.0595153
4       119.25                   0.1972201
5        49.068                  0.4007439
6        21.212                  0.399474
7         8.9462                 0.1153364
8         3.8236                 0.0002219
9         1.5883                 0.0022838
10        0.40969               -0.0004756
P   10
1      4135.6                   -0.000561
2       980.34                  -0.004734
3       316.35                  -0.0243504
4       119.25                  -0.0841071
5        49.068                 -0.1841384
6        21.212                 -0.1735004
7         8.9462                 0.2167263
8         3.8236                 0.5850099
9         1.5883                 0.3416816
10        0.40969                0.0199125
P   1
1         1.5023                 1.0
P   10
1      4135.6                    0.0001366
2       980.34                   0.0011308
3       316.35                   0.0059581
4       119.25                   0.0201866
5        49.068                  0.0461939
6        21.212                  0.039405
7         8.9462                -0.0592846
8         3.8236                -0.2014663
9         1.5883                -0.0687821
10        0.40969                0.5595944
P   1
1         0.12459                1.0
D   5
1        94.472                  0.0234982
2        27.18                   0.1375183
3         9.5068                 0.3664824
4         3.4168                 0.4874717
5         1.1479                 0.2765769
D   1
1         1.2241                 1.0
D   1
1         0.3682                 1.0
F   1
1         2.4632                 1.0

BROMINE
S   13
1    640100.0                    0.0001984
2     95938.0                    0.00154
3     21833.0                    0.0080096
4      6181.9                    0.0327341
5      2015.7                    0.107448
6       727.1                    0.2688946
7       283.28                   0.4204411
8       115.91                   0.2838041
9        36.124                  0.0315455
10       15.532                 -0.0074268
11        4.7857                 0.0027728
12        2.0817                -0.0013635
13        0.42028                0.0003812
S   13
1    640100.0                   -6.25e-05
2     95938.0                   -0.0004816
3     21833.0                   -0.0025466
4      6181.9                   -0.0104112
5      2015.7                   -0.0365179
6       727.1                   -0.0996295
7       283.28                  -0.214131
8       115.91                  -0.1860911
9        36.124                  0.4628261
10       15.532                  0.6441141
11        4.7857                 0.0825502
12        2.0817                -0.0149694
13        0.42028                0.0035288
S   13
1    640100.0                    2.48e-05
2     95938.0                    0.0001919
3     21833.0                    0.00101
4      6181.9                    0.0041659
5      2015.7                    0.0145683
6       727.1                    0.0408345
7       283.28                   0.0894859
8       115.91                   0.0872786
9        36.124                 -0.2933644
10       15.532                 -0.5667109
11        4.7857                 0.5105658
12        2.0817                 0.7477214
13        0.42028                0.0421512
S   1
1         1.6988                 1.0
S   13
1    640100.0                   -7.6e-06
2     95938.0                   -5.88e-05
3     21833.0                   -0.0003092
4      6181.9                   -0.0012766
5      2015.7                   -0.0044634
6       727.1                   -0.0125575
7       283.28                  -0.0276145
8       115.91                  -0.0273945
9        36.124                  0.0964094
10       15.532                  0.1976871
11        4.7857                -0.2266693
12        2.0817                -0.5241165
13        0.42028                0.6889865
S   1
1         0.16069                1.0
P   10
1      4340.8                    0.0014448
2      1028.9                    0.0121288
3       332.02                   0.0608077
4       125.16                   0.2009358
5        51.511                  0.4047419
6        22.281                  0.3957151
7         9.3417                 0.1102213
8         4.0132                -0.000909
9         1.7002                 0.0024832
10        0.47194               -0.0005744
P   10
1      4340.8                   -0.0005819
2      1028.9                   -0.0049065
3       332.02                  -0.0252514
4       125.16                  -0.0869445
5        51.511                 -0.1893422
6        22.281                 -0.1710882
7         9.3417                 0.2368755
8         4.0132                 0.58984
9         1.7002                 0.3171944
10        0.47194                0.0179833
P   1
1         1.7916                 1.0
P   10
1      4340.8                    0.0001518
2      1028.9                    0.0012563
3       332.02                   0.0066224
4       125.16                   0.0223816
5        51.511                  0.0509717
6        22.281                  0.0414009
7         9.3417                -0.070397
8         4.0132                -0.223254
9         1.7002                -0.0564179
10        0.47194                0.5808079
P   1
1         0.14421                1.0
D   5
1       104.83                   0.0226583
2        30.272                  0.1345895
3        10.649                  0.3647181
4         3.8696                 0.4904196
5         1.3239                 0.2713885
D   1
1         1.3807                 1.0
D   1
1         0.4098                 1.0
F   1
1         2.8755                 1.0

KRYPTON
S   13
1    681358.8                    0.0001969
2    102126.5                    0.0015286
3     23243.71                   0.00795
4      6582.007                  0.0324938
5      2146.429                  0.106724
6       774.3378                 0.2675701
7       301.6702                 0.4201851
8       123.4118                 0.2858015
9        38.56755                0.0322461
10       16.63738               -0.0076828
11        5.198795               0.0029393
12        2.294814              -0.0014662
13        0.485211               0.0004144
S   13
1    681358.8                   -6.22e-05
2    102126.5                   -0.0004794
3     23243.71                  -0.0025341
4      6582.007                 -0.0103636
5      2146.429                 -0.0363516
6       774.3378                -0.0993737
7       301.6702                -0.214061
8       123.4118                -0.1883192
9        38.56755                0.4583816
10       16.63738                0.6465664
11        5.198795               0.0856579
12        2.294814              -0.0156123
13        0.485211               0.003649
S   13
1    681358.8                    2.49e-05
2    102126.5                    0.0001928
3     23243.71                   0.0010149
4      6582.007                  0.0041857
5      2146.429                  0.0146459
6       774.3378                 0.041107
7       301.6702                 0.0903955
8       123.4118                 0.0890623
9        38.56755               -0.2935718
10       16.63738               -0.5759698
11        5.198795               0.4968578
12        2.294814               0.7616895
13        0.485211               0.0453267
S   1
1         1.8851                 1.0
S   13
1    681358.8                   -7.9e-06
2    102126.5                   -6.14e-05
3     23243.71                  -0.000323
4      6582.007                 -0.001333
5      2146.429                 -0.0046672
6       774.3378                -0.0131352
7       301.6702                -0.0290342
8       123.4118                -0.0290173
9        38.56755                0.1002664
10       16.63738                0.2103818
11        5.198795              -0.2332471
12        2.294814              -0.5546497
13        0.485211               0.6969522
S   1
1         0.18627                1.0
P   10
1      4474.27                   0.0015195
2      1060.579                  0.0127424
3       342.2081                 0.0636465
4       128.9984                 0.2085635
5        53.08722                0.4122423
6        22.95942                0.3878103
7         9.5073                 0.100382
8         4.083055              -0.0025078
9         1.750446               0.0027139
10        0.52919               -0.0006977
P   10
1      4474.27                  -0.0006208
2      1060.579                 -0.0052212
3       342.2081                -0.0268463
4       128.9984                -0.0915823
5        53.08722               -0.1968164
6        22.95942               -0.163475
7         9.5073                 0.2738204
8         4.083055               0.5981592
9         1.750446               0.2750453
10        0.52919                0.0127706
P   1
1         2.0926                 1.0
P   10
1      4474.27                   0.0001701
2      1060.579                  0.0014064
3       342.2081                 0.0073963
4       128.9984                 0.0248254
5        53.08722                0.0557155
6        22.95942                0.0412132
7         9.5073                -0.0876057
8         4.083055              -0.2440586
9         1.750446              -0.0295007
10        0.52919                0.6012295
P   1
1         0.164369               1.0
D   5
1       115.5253                 0.0219557
2        33.46525                0.132162
3        11.83046                0.3633484
4         4.339771               0.4929582
5         1.507524               0.266756
D   1
1         1.6153                 1.0
D   1
1         0.503                  1.0
F   1
1         3.2938                 1.0

$END